(set-logic ALL)
(declare-fun i1 () Int)
(declare-fun i5 () Int)
(declare-fun it1 () Int)
(declare-fun it2 () Int)
(declare-fun i2 () Int)
(declare-fun i3 () Int)
(declare-fun it3 () Int)
(declare-fun it4 () Int)
(declare-fun i4 () Int)
(declare-fun it5 () Int)
(declare-fun it20 () Int)
(declare-fun it21 () Int)
(declare-fun it22 () Int)
(declare-fun it23 () Int)
(declare-fun it24 () Int)
(declare-fun it37 () Int)
(declare-fun it38 () Int)
(declare-fun it39 () Int)
(declare-fun it40 () Int)
(declare-fun it41 () Int)
(declare-fun it18 () Int)
(assert (and (> i5 0) (= (+ i1 (- 1)) 0)))
(assert (= (+ it1 (- 2)) 0))
(assert (= (+ (* i2 (- 1)) it2 (- 1)) 0))
(assert (= (+ it3 (* i3 (- 1))) 0))
(assert (= (+ (* i4 (- 1)) it4) 0))
(assert (= (+ (* i5 (- 1)) it5) 0))
(assert (let ((a!1 (< (+ (exp it3 2) (+ 0 (* it4 (- 1))) (exp it5 5)) (+ 0 0))))
  (and (= (+ it1 (- 2)) 0) a!1 (> it3 0))))
(assert (= (+ it20 (- 2)) 0))
(assert (= (+ it21 (* it2 (- 1)) (- 1)) 0))
(assert (= (+ (* it3 2) it22) 0))
(assert (= (+ (* (exp it5 3) (+ 0 2)) (+ 0 (* it4 (- 3))) (+ 0 it23))
   (+ 0 0)))
(assert (= (+ it24 (* it5 (- 1))) 0))
(assert (let ((a!1 (< (+ (exp it24 5) (exp it22 2) (+ 0 (* it23 (- 1)))) (+ 0 0))))
  (and (< it22 0) a!1 (= (+ it20 (- 2)) 0))))
(assert (= (+ it37 (- 2)) 0))
(assert (= (+ (* it21 (- 1)) it38 (- 1)) 0))
(assert (= (+ it39 (* it22 2)) 0))
(assert (= (+ (+ 0 it40) (* (exp it24 3) (+ 0 2)) (+ 0 (* it23 (- 3))))
   (+ 0 0)))
(assert (= (+ (* it24 (- 1)) it41) 0))
(assert (let ((a!1 (* (* (exp 9 (+ it18 (- 1))) (exp it41 3)) (+ 0 (- 3))))
      (a!2 (* (* (exp 9 (+ it18 (- 1))) (+ 0 it40)) (+ 0 3)))
      (a!3 (* (exp it39 2) (exp (exp 4 (+ it18 (- 1))) (+ 0 2))))
      (a!5 (* (* (exp 9 (+ it18 (- 1))) (exp it41 3)) (+ 0 (- 1))))
      (a!7 (> (+ (+ 0 it40)
                 (* (exp it39 2) (+ 0 (- 1)))
                 (* (exp it41 5) (+ 0 (- 1))))
              (+ 0 0))))
(let ((a!4 (> (+ a!1
                 a!2
                 (exp it41 3)
                 (* a!3 (+ 0 (- 4)))
                 (* (exp it41 5) (+ 0 (- 1))))
              (+ 0 0)))
      (a!6 (+ a!5
              (* (exp 9 (+ it18 (- 1))) (+ 0 it40))
              (exp it41 3)
              (* a!3 (+ 0 (- 1)))
              (* (exp it41 5) (+ 0 (- 1))))))
  (and (>= (+ (* it37 (- 1)) 2) 0)
       a!4
       (> it39 0)
       (>= (+ it18 (- 1)) 0)
       (> a!6 (+ 0 0))
       (>= (+ it37 (- 2)) 0)
       a!7
       (> (* it39 2) 0)))))
(check-sat)
